#######################################
### Exact MIP solver for the HHCRSP ###
#######################################
-- Instance file: new-instances/HHCRSP_300_60_76_1.0_C_C.txt
-- Max threads: 4
-- Time limit: 999999 seconds
-- Use initial solution: No
Trivial flow violations prevented generating 1166656 variables.
Version identifier: 20.1.0.0 | 2020-11-10 | 9bedb6d68
CPXPARAM_Threads                                 4
CPXPARAM_TimeLimit                               999999
Parallel mode: deterministic, using up to 4 threads for concurrent optimization:
 * Starting dual Simplex on 1 thread...
 * Starting Barrier on 3 threads...
Tried aggregator 1 time.
LP Presolve eliminated 46164 rows and 10320 columns.
Reduced LP has 1244402 rows, 1182881 columns, and 27634814 nonzeros.
Presolve time = 31.97 sec. (6115.69 ticks)
Symmetry aggregator did 2008246 additional substitutions.
Initializing dual steep norms . . .

Iteration log . . .
Iteration:     1   Dual objective     =             0.666667
Iteration:  1395   Dual objective     =           295.666667
Perturbation started.
Iteration:  1616   Dual objective     =           297.333333
Removing perturbation.

Dual crossover.
  Dual:  Fixing 1806 variables.
     1805 DMoves:  Infeasibility  1.76036963e-12  Objective  2.97666667e+02
        0 DMoves:  Infeasibility  9.57775531e-13  Objective  2.97666667e+02
  Dual:  Pushed 43, exchanged 1763.
  Primal:  Fixing 1129 variables.
     1128 PMoves:  Infeasibility  2.77555756e-17  Objective  2.97666667e+02
        0 PMoves:  Infeasibility  4.99600361e-16  Objective  2.97666667e+02
  Primal:  Pushed 980, exchanged 149.

Dual simplex solved model.


Solution status from MIP model:
-- Processing time: 51.965 sec.
-- Memory used: 1068.51 MB
-- Best bound: inf
-- Obj value: 297.667
-- Gap: inf%
-- Total distance: 893
-- Total tardiness: 0
-- Largest tardiness: 0
